%nProc=20
#N PBEPBE/DEF2TZVP SP SCRF=(Solvent=Water)

HO_full_1

-1 1
 O        -2.221156        3.742083       -3.535581
 H        -3.184552        3.776587       -3.037863
 H        -2.321352        2.921190       -4.107600
 O        -4.614213        3.796930       -2.566305
 H        -4.825506        4.689154       -2.637779
 H        -5.565039        3.198799       -1.698675
 O        -6.182393        2.712245       -0.941675
 H        -6.147164        1.762983       -1.027758

